(set-info :smt-lib-version 2.6)
(set-info :category "crafted")
(set-logic QF_FFA)
(define-sort FF0 () (_ FiniteField 52435875175126190479447740508185965837690552500527637822603658699938581184513))
(declare-fun return_n7_alt () FF0)
(declare-fun is_zero_n19_alt () FF0)
(declare-fun is_zero_n17_alt () FF0)
(declare-fun g_n9_alt () FF0)
(declare-fun mul_n11_alt () FF0)
(declare-fun is_zero_inv_n20_alt () FF0)
(declare-fun e_n2_alt () FF0)
(declare-fun h_n10_alt () FF0)
(declare-fun i_n5_alt () FF0)
(declare-fun a_n0_alt () FF0)
(declare-fun is_zero_inv_n18_alt () FF0)
(declare-fun c_n6_alt () FF0)
(declare-fun mul_n14_alt () FF0)
(declare-fun mul_n15_alt () FF0)
(declare-fun j_n3_alt () FF0)
(declare-fun mul_n13_alt () FF0)
(declare-fun b_n8_alt () FF0)
(declare-fun is_zero_inv_n16_alt () FF0)
(declare-fun d_n4_alt () FF0)
(declare-fun mul_n12_alt () FF0)
(declare-fun f_n1_alt () FF0)
(declare-fun return_n7 () FF0)
(declare-fun is_zero_n19 () FF0)
(declare-fun is_zero_n17 () FF0)
(declare-fun g_n9 () FF0)
(declare-fun mul_n11 () FF0)
(declare-fun is_zero_inv_n20 () FF0)
(declare-fun e_n2 () FF0)
(declare-fun h_n10 () FF0)
(declare-fun i_n5 () FF0)
(declare-fun a_n0 () FF0)
(declare-fun is_zero_inv_n18 () FF0)
(declare-fun c_n6 () FF0)
(declare-fun mul_n14 () FF0)
(declare-fun mul_n15 () FF0)
(declare-fun j_n3 () FF0)
(declare-fun mul_n13 () FF0)
(declare-fun b_n8 () FF0)
(declare-fun is_zero_inv_n16 () FF0)
(declare-fun d_n4 () FF0)
(declare-fun mul_n12 () FF0)
(declare-fun f_n1 () FF0)
(assert 
  (let ((let0 return_n7_alt))
  (let ((let1 (as ff1 FF0)))
  (let ((let2 is_zero_n19_alt))
  (let ((let3 is_zero_n17_alt))
  (let ((let4 g_n9_alt))
  (let ((let5 (as ff52435875175126190479447740508185965837690552500527637822603658699938581184512 FF0)))
  (let ((let6 mul_n11_alt))
  (let ((let7 (ff.mul let6 let5)))
  (let ((let8 (ff.add let7 let4 let3 let2 let1)))
  (let ((let9 is_zero_inv_n20_alt))
  (let ((let10 (ff.mul let9 let8)))
  (let ((let11 (= let10 let0)))
  (let ((let12 (as ff0 FF0)))
  (let ((let13 (as ff4 FF0)))
  (let ((let14 e_n2_alt))
  (let ((let15 (ff.mul let14 let5)))
  (let ((let16 h_n10_alt))
  (let ((let17 (ff.mul let16 let5)))
  (let ((let18 i_n5_alt))
  (let ((let19 (ff.mul let18 let5)))
  (let ((let20 a_n0_alt))
  (let ((let21 (ff.mul let20 let5)))
  (let ((let22 (ff.add let21 let19 let17 let15 let13)))
  (let ((let23 (ff.mul let2 let22)))
  (let ((let24 (= let23 let12)))
  (let ((let25 (ff.mul let2 let5)))
  (let ((let26 (ff.add let25 let1)))
  (let ((let27 is_zero_inv_n18_alt))
  (let ((let28 (ff.mul let27 let22)))
  (let ((let29 (= let28 let26)))
  (let ((let30 c_n6_alt))
  (let ((let31 (ff.mul let30 let5)))
  (let ((let32 mul_n14_alt))
  (let ((let33 mul_n15_alt))
  (let ((let34 j_n3_alt))
  (let ((let35 (ff.mul let34 let5)))
  (let ((let36 mul_n13_alt))
  (let ((let37 (ff.mul let36 let5)))
  (let ((let38 b_n8_alt))
  (let ((let39 (ff.mul let38 let5)))
  (let ((let40 (ff.add let39 let37 let35 let33 let32 let31 let13)))
  (let ((let41 (ff.mul let3 let40)))
  (let ((let42 (= let41 let12)))
  (let ((let43 (ff.mul let3 let5)))
  (let ((let44 (ff.add let43 let1)))
  (let ((let45 is_zero_inv_n16_alt))
  (let ((let46 (ff.mul let45 let40)))
  (let ((let47 (= let46 let44)))
  (let ((let48 (ff.add let35 let1)))
  (let ((let49 d_n4_alt))
  (let ((let50 (ff.mul let49 let48)))
  (let ((let51 (= let50 let33)))
  (let ((let52 (ff.mul let49 let5)))
  (let ((let53 (ff.add let52 let1)))
  (let ((let54 (ff.mul let20 let53)))
  (let ((let55 (= let54 let32)))
  (let ((let56 mul_n12_alt))
  (let ((let57 (ff.mul let56 let38)))
  (let ((let58 (= let57 let36)))
  (let ((let59 f_n1_alt))
  (let ((let60 (ff.mul let59 let30)))
  (let ((let61 (= let60 let56)))
  (let ((let62 (ff.add let19 let1)))
  (let ((let63 (ff.mul let14 let62)))
  (let ((let64 (= let63 let6)))
  (let ((let65 (and let64 let61 let58 let55 let51 let47 let42 let29 let24 let11)))
  (let ((let66 return_n7))
  (let ((let67 is_zero_n19))
  (let ((let68 is_zero_n17))
  (let ((let69 g_n9))
  (let ((let70 mul_n11))
  (let ((let71 (ff.mul let70 let5)))
  (let ((let72 (ff.add let71 let69 let68 let67 let1)))
  (let ((let73 is_zero_inv_n20))
  (let ((let74 (ff.mul let73 let72)))
  (let ((let75 (= let74 let66)))
  (let ((let76 e_n2))
  (let ((let77 (ff.mul let76 let5)))
  (let ((let78 h_n10))
  (let ((let79 (ff.mul let78 let5)))
  (let ((let80 i_n5))
  (let ((let81 (ff.mul let80 let5)))
  (let ((let82 a_n0))
  (let ((let83 (ff.mul let82 let5)))
  (let ((let84 (ff.add let83 let81 let79 let77 let13)))
  (let ((let85 (ff.mul let67 let84)))
  (let ((let86 (= let85 let12)))
  (let ((let87 (ff.mul let67 let5)))
  (let ((let88 (ff.add let87 let1)))
  (let ((let89 is_zero_inv_n18))
  (let ((let90 (ff.mul let89 let84)))
  (let ((let91 (= let90 let88)))
  (let ((let92 c_n6))
  (let ((let93 (ff.mul let92 let5)))
  (let ((let94 mul_n14))
  (let ((let95 mul_n15))
  (let ((let96 j_n3))
  (let ((let97 (ff.mul let96 let5)))
  (let ((let98 mul_n13))
  (let ((let99 (ff.mul let98 let5)))
  (let ((let100 b_n8))
  (let ((let101 (ff.mul let100 let5)))
  (let ((let102 (ff.add let101 let99 let97 let95 let94 let93 let13)))
  (let ((let103 (ff.mul let68 let102)))
  (let ((let104 (= let103 let12)))
  (let ((let105 (ff.mul let68 let5)))
  (let ((let106 (ff.add let105 let1)))
  (let ((let107 is_zero_inv_n16))
  (let ((let108 (ff.mul let107 let102)))
  (let ((let109 (= let108 let106)))
  (let ((let110 (ff.add let97 let1)))
  (let ((let111 d_n4))
  (let ((let112 (ff.mul let111 let110)))
  (let ((let113 (= let112 let95)))
  (let ((let114 (ff.mul let111 let5)))
  (let ((let115 (ff.add let114 let1)))
  (let ((let116 (ff.mul let82 let115)))
  (let ((let117 (= let116 let94)))
  (let ((let118 mul_n12))
  (let ((let119 (ff.mul let118 let100)))
  (let ((let120 (= let119 let98)))
  (let ((let121 f_n1))
  (let ((let122 (ff.mul let121 let92)))
  (let ((let123 (= let122 let118)))
  (let ((let124 (ff.add let81 let1)))
  (let ((let125 (ff.mul let76 let124)))
  (let ((let126 (= let125 let70)))
  (let ((let127 (and let126 let123 let120 let117 let113 let109 let104 let91 let86 let75)))
  (let ((let128 (= let66 let0)))
  (let ((let129 (not let128)))
  (let ((let130 (= let80 let18)))
  (let ((let131 (= let92 let30)))
  (let ((let132 (= let78 let16)))
  (let ((let133 (= let111 let49)))
  (let ((let134 (= let82 let20)))
  (let ((let135 (= let100 let38)))
  (let ((let136 (= let69 let4)))
  (let ((let137 (= let96 let34)))
  (let ((let138 (= let121 let59)))
  (let ((let139 (= let76 let14)))
  (let ((let140 (and let139 let138 let137 let136 let135 let134 let133 let132 let131 let130)))
  (let ((let141 (and let140 let129 let127 let65)))
  let141
))))))))))))))))))))))))))))))))))))))))))))))))))))))))))))))))))))))))))))))))))))))))))))))))))))))))))))))))))))))))))))))))))))))))))))))
)
(check-sat)
